% Auto-generated by scripts/generate_dzn.py
% problem_type   = regex
% instance       = regex_60
% source_json    = instances_json/1_medium_blowup/regex_60.json
% blowup         = 3.5
% representation = NFA

mode = 1;

var_count = 18;
n_constraints = 2;
Q = 11;
S = 3;
q0 = [1, 1];
F = [{11}, {9}];
weights = [10, 9, 2, 4, 3, 7, 6, 6, 8, 1, 4, 1, 7, 9, 5, 8, 6, 6];
d_dfa = array3d(1..2, 1..11, 1..3, [
  % k = 1
    0, 0, 0,
    0, 0, 0,
    0, 0, 0,
    0, 0, 0,
    0, 0, 0,
    0, 0, 0,
    0, 0, 0,
    0, 0, 0,
    0, 0, 0,
    0, 0, 0,
    0, 0, 0,

  % k = 2
    0, 0, 0,
    0, 0, 0,
    0, 0, 0,
    0, 0, 0,
    0, 0, 0,
    0, 0, 0,
    0, 0, 0,
    0, 0, 0,
    0, 0, 0,
    0, 0, 0,
    0, 0, 0
]);
d_nfa = array3d(1..2, 1..11, 1..3, [
  % k = 1
    {1}, {1}, {1, 2},
    {3}, {}, {},
    {}, {4}, {},
    {5}, {5}, {5},
    {6}, {6}, {6},
    {7}, {7}, {7},
    {8}, {8}, {8},
    {9}, {9}, {9},
    {10}, {10}, {10},
    {11}, {11}, {11},
    {}, {}, {},

  % k = 2
    {1}, {2}, {1},
    {2}, {3}, {2},
    {3}, {4}, {3},
    {4}, {5}, {4},
    {5}, {6}, {5},
    {6}, {7}, {6},
    {7}, {8}, {7},
    {8}, {9}, {8},
    {9}, {}, {9},
    {}, {}, {},
    {}, {}, {}
]);
